N = 96;
M = 218;
Edge_Start = [1, 1, 2, 3, 3, 4, 5, 5, 7, 8, 9, 9, 10, 11, 11, 12, 13, 14, 15, 15, 16, 17, 18, 19, 19, 20, 21, 21, 23, 23, 24, 25, 25, 26, 27, 28, 28, 30, 30, 31, 32, 32, 33, 34, 36, 36, 37, 38, 39, 40, 42, 43, 43, 44, 45, 46, 47, 47, 48, 49, 49, 50, 51, 52, 53, 54, 55, 56, 57, 58, 58, 60, 60, 61, 62, 62, 64, 64, 65, 66, 67, 68, 68, 70, 71, 71, 72, 73, 73, 74, 75, 76, 77, 77, 78, 79, 79, 81, 83, 84, 85, 86, 88, 89, 91, 92, 93, 94, 95, 2, 14, 3, 4, 16, 5, 6, 18, 20, 9, 10, 22, 11, 12, 24, 13, 26, 15, 16, 29, 17, 31, 19, 20, 33, 21, 22, 35, 24, 37, 25, 26, 39, 27, 41, 29, 42, 31, 44, 32, 33, 46, 34, 35, 37, 50, 38, 39, 40, 41, 43, 44, 57, 45, 59, 47, 48, 61, 49, 50, 63, 51, 65, 53, 54, 55, 69, 57, 58, 59, 72, 61, 74, 62, 63, 76, 65, 78, 66, 67, 68, 69, 82, 71, 72, 84, 73, 74, 86, 75, 88, 77, 78, 90, 79, 80, 92, 82, 96, 85, 86, 87, 89, 90, 92, 93, 94, 95, 96];
Edge_End = [2, 14, 3, 4, 16, 5, 6, 18, 20, 9, 10, 22, 11, 12, 24, 13, 26, 15, 16, 29, 17, 31, 19, 20, 33, 21, 22, 35, 24, 37, 25, 26, 39, 27, 41, 29, 42, 31, 44, 32, 33, 46, 34, 35, 37, 50, 38, 39, 40, 41, 43, 44, 57, 45, 59, 47, 48, 61, 49, 50, 63, 51, 65, 53, 54, 55, 69, 57, 58, 59, 72, 61, 74, 62, 63, 76, 65, 78, 66, 67, 68, 69, 82, 71, 72, 84, 73, 74, 86, 75, 88, 77, 78, 90, 79, 80, 92, 82, 96, 85, 86, 87, 89, 90, 92, 93, 94, 95, 96, 1, 1, 2, 3, 3, 4, 5, 5, 7, 8, 9, 9, 10, 11, 11, 12, 13, 14, 15, 15, 16, 17, 18, 19, 19, 20, 21, 21, 23, 23, 24, 25, 25, 26, 27, 28, 28, 30, 30, 31, 32, 32, 33, 34, 36, 36, 37, 38, 39, 40, 42, 43, 43, 44, 45, 46, 47, 47, 48, 49, 49, 50, 51, 52, 53, 54, 55, 56, 57, 58, 58, 60, 60, 61, 62, 62, 64, 64, 65, 66, 67, 68, 68, 70, 71, 71, 72, 73, 73, 74, 75, 76, 77, 77, 78, 79, 79, 81, 83, 84, 85, 86, 88, 89, 91, 92, 93, 94, 95];
L = [9, 19, 8, 9, 3, 17, 8, 18, 8, 12, 16, 5, 3, 2, 16, 12, 7, 9, 12, 5, 11, 10, 2, 18, 2, 12, 6, 4, 9, 19, 11, 5, 4, 7, 3, 7, 5, 7, 7, 12, 18, 2, 16, 3, 11, 18, 10, 3, 11, 1, 13, 9, 10, 17, 12, 10, 10, 2, 17, 13, 8, 16, 5, 5, 19, 17, 19, 5, 3, 1, 2, 15, 9, 12, 9, 16, 11, 3, 15, 11, 5, 18, 11, 16, 11, 2, 5, 4, 10, 17, 8, 13, 15, 8, 1, 7, 19, 5, 17, 16, 17, 15, 2, 1, 16, 4, 16, 11, 9, 9, 19, 8, 9, 3, 17, 8, 18, 8, 12, 16, 5, 3, 2, 16, 12, 7, 9, 12, 5, 11, 10, 2, 18, 2, 12, 6, 4, 9, 19, 11, 5, 4, 7, 3, 7, 5, 7, 7, 12, 18, 2, 16, 3, 11, 18, 10, 3, 11, 1, 13, 9, 10, 17, 12, 10, 10, 2, 17, 13, 8, 16, 5, 5, 19, 17, 19, 5, 3, 1, 2, 15, 9, 12, 9, 16, 11, 3, 15, 11, 5, 18, 11, 16, 11, 2, 5, 4, 10, 17, 8, 13, 15, 8, 1, 7, 19, 5, 17, 16, 17, 15, 2, 1, 16, 4, 16, 11, 9];
T = [9, 27, 6, 11, 1, 11, 10, 17, 16, 10, 21, 4, 1, 1, 8, 14, 7, 1, 18, 5, 12, 1, 4, 12, 8, 11, 1, 6, 7, 31, 14, 1, 4, 9, 1, 11, 4, 11, 7, 13, 30, 7, 30, 4, 15, 24, 15, 1, 1, 5, 9, 7, 10, 18, 12, 8, 14, 3, 17, 14, 4, 8, 11, 5, 21, 21, 25, 4, 4, 10, 1, 19, 14, 9, 9, 7, 2, 4, 12, 11, 9, 12, 9, 11, 20, 10, 11, 8, 14, 13, 13, 9, 16, 3, 1, 7, 4, 1, 15, 17, 18, 18, 1, 1, 11, 16, 22, 5, 8, 9, 27, 6, 11, 1, 11, 10, 17, 16, 10, 21, 4, 1, 1, 8, 14, 7, 1, 18, 5, 12, 1, 4, 12, 8, 11, 1, 6, 7, 31, 14, 1, 4, 9, 1, 11, 4, 11, 7, 13, 30, 7, 30, 4, 15, 24, 15, 1, 1, 5, 9, 7, 10, 18, 12, 8, 14, 3, 17, 14, 4, 8, 11, 5, 21, 21, 25, 4, 4, 10, 1, 19, 14, 9, 9, 7, 2, 4, 12, 11, 9, 12, 9, 11, 20, 10, 11, 8, 14, 13, 13, 9, 16, 3, 1, 7, 4, 1, 15, 17, 18, 18, 1, 1, 11, 16, 22, 5, 8];
Lower_Bound = [0, 9, 15, 26, 37, 47, 86, 96, 86, 107, 108, 109, 123, 27, 28, 16, 28, 54, 58, 70, 81, 82, 123, 116, 130, 130, 139, 44, 33, 40, 29, 42, 66, 91, 87, 120, 135, 135, 134, 135, 140, 48, 54, 47, 65, 49, 57, 71, 82, 96, 104, 223, 218, 197, 176, 68, 64, 68, 77, 79, 60, 69, 78, 105, 107, 119, 130, 139, 151, 100, 89, 69, 80, 88, 101, 76, 85, 101, 102, 109, 149, 148, 172, 99, 112, 94, 112, 90, 89, 88, 117, 106, 122, 144, 149, 157];
Upper_Bound = [0, 9, 15, 26, 37, 47, 86, 96, 86, 107, 108, 109, 123, 27, 28, 16, 28, 54, 58, 70, 81, 82, 123, 116, 130, 130, 139, 44, 33, 40, 29, 42, 66, 91, 87, 120, 135, 135, 134, 135, 140, 48, 54, 47, 65, 49, 57, 71, 82, 96, 104, 223, 218, 197, 176, 68, 64, 68, 77, 79, 60, 69, 78, 105, 107, 119, 130, 139, 151, 100, 89, 69, 80, 88, 101, 76, 85, 101, 102, 109, 149, 148, 172, 99, 112, 94, 112, 90, 89, 88, 117, 106, 122, 144, 149, 157];
Start = 1;
End = 96;
Time = 157;
